% Auto-generated by scripts/generate_dzn.py
% problem_type   = regex
% instance       = regex_51
% source_json    = instances_json/0_low_blowup/regex_51.json
% blowup         = 1.64
% representation = DFA

mode = 0;

var_count = 19;
Q = 41;
S = 3;
q0 = 1;
F = {29, 30, 31, 32, 33, 34, 35, 36, 37, 38, 39, 40, 41};
d_dfa = array2d(1..41, 1..3, [
  2, 1, 1,
  2, 3, 1,
  2, 1, 4,
  6, 5, 5,
  8, 7, 7,
  8, 9, 7,
  11, 10, 10,
  11, 12, 10,
  11, 10, 13,
  15, 14, 14,
  15, 16, 14,
  15, 14, 17,
  19, 18, 18,
  21, 20, 20,
  21, 22, 20,
  21, 20, 23,
  25, 24, 24,
  27, 26, 26,
  27, 28, 26,
  30, 29, 29,
  30, 31, 29,
  30, 29, 32,
  34, 33, 33,
  36, 35, 35,
  36, 37, 35,
  39, 38, 38,
  39, 40, 38,
  39, 38, 41,
  2, 1, 1,
  2, 3, 1,
  2, 1, 4,
  6, 5, 5,
  8, 7, 7,
  8, 9, 7,
  11, 10, 10,
  11, 12, 10,
  11, 10, 13,
  15, 14, 14,
  15, 16, 14,
  15, 14, 17,
  19, 18, 18
]);
d_nfa = array2d(1..41, 1..3, [
  {}, {}, {},
  {}, {}, {},
  {}, {}, {},
  {}, {}, {},
  {}, {}, {},
  {}, {}, {},
  {}, {}, {},
  {}, {}, {},
  {}, {}, {},
  {}, {}, {},
  {}, {}, {},
  {}, {}, {},
  {}, {}, {},
  {}, {}, {},
  {}, {}, {},
  {}, {}, {},
  {}, {}, {},
  {}, {}, {},
  {}, {}, {},
  {}, {}, {},
  {}, {}, {},
  {}, {}, {},
  {}, {}, {},
  {}, {}, {},
  {}, {}, {},
  {}, {}, {},
  {}, {}, {},
  {}, {}, {},
  {}, {}, {},
  {}, {}, {},
  {}, {}, {},
  {}, {}, {},
  {}, {}, {},
  {}, {}, {},
  {}, {}, {},
  {}, {}, {},
  {}, {}, {},
  {}, {}, {},
  {}, {}, {},
  {}, {}, {},
  {}, {}, {}
]);
